83 300 110 53 249 283 44 265 275 248 123 187 145 57 94 256 102 64 159 120 208 79 268 121 173 254 229 28 250 296 39 33 130 200 85 78 182 180 42 209 179 216 95 75 25 188 30 178 3 189 297 210 19 17 83 191 270 11 218 271 58 8 55 239 207 139 68 88 71 110 296 249 77 143 24 153 30 53 31 33 293 27 294 11 43 